benchmark/results/graph__10-1000-0.10-04_15/graph__10-1000-0.10-04_15_Quinton_Monolithic.lp
\ This file has been generated by DOcplex
\ ENCODING=ISO-8859-1
\Problem name: Quinton Monolithic

Maximize
 obj: tau
Subject To
 c1: tau - 0.000894454383 m_a0_proc_0 - 0.001897533207 m_a0_proc_2
     - 0.001231527094 m_a0_proc_3 <= 0
 c2: y_a0_proc_0 + y_a0_proc_2 + y_a0_proc_3 - tau = 0
 c3: m_a0_proc_0 + m_a0_proc_2 + m_a0_proc_3 = 1
 c4: y_a0_proc_0 - m_a0_proc_0 <= 0
 c5: y_a0_proc_0 >= 0
 c6: y_a0_proc_2 - m_a0_proc_2 <= 0
 c7: y_a0_proc_2 >= 0
 c8: y_a0_proc_3 - m_a0_proc_3 <= 0
 c9: y_a0_proc_3 >= 0
 c10: tau - 0.001293661061 m_a1_proc_0 - 0.001094091904 m_a1_proc_1
      - 0.000932835821 m_a1_proc_3 <= 0
 c11: y_a1_proc_0 + y_a1_proc_1 + y_a1_proc_3 - tau = 0
 c12: m_a1_proc_0 + m_a1_proc_1 + m_a1_proc_3 = 1
 c13: y_a1_proc_0 - m_a1_proc_0 <= 0
 c14: y_a1_proc_0 >= 0
 c15: y_a1_proc_1 - m_a1_proc_1 <= 0
 c16: y_a1_proc_1 >= 0
 c17: y_a1_proc_3 - m_a1_proc_3 <= 0
 c18: y_a1_proc_3 >= 0
 c19: tau - 0.001152073733 m_a2_proc_0 - 0.004926108374 m_a2_proc_1
      - 0.000973709834 m_a2_proc_2 - 0.000989119683 m_a2_proc_3 <= 0
 c20: y_a2_proc_0 + y_a2_proc_1 + y_a2_proc_2 + y_a2_proc_3 - tau = 0
 c21: m_a2_proc_0 + m_a2_proc_1 + m_a2_proc_2 + m_a2_proc_3 = 1
 c22: y_a2_proc_0 - m_a2_proc_0 <= 0
 c23: y_a2_proc_0 >= 0
 c24: y_a2_proc_1 - m_a2_proc_1 <= 0
 c25: y_a2_proc_1 >= 0
 c26: y_a2_proc_2 - m_a2_proc_2 <= 0
 c27: y_a2_proc_2 >= 0
 c28: y_a2_proc_3 - m_a2_proc_3 <= 0
 c29: y_a2_proc_3 >= 0
 c30: tau - 0.001547987616 m_a3_proc_0 - 0.001113585746 m_a3_proc_1
      - 0.000929368030 m_a3_proc_2 - 0.001090512541 m_a3_proc_3 <= 0
 c31: y_a3_proc_0 + y_a3_proc_1 + y_a3_proc_2 + y_a3_proc_3 - tau = 0
 c32: m_a3_proc_0 + m_a3_proc_1 + m_a3_proc_2 + m_a3_proc_3 = 1
 c33: y_a3_proc_0 - m_a3_proc_0 <= 0
 c34: y_a3_proc_0 >= 0
 c35: y_a3_proc_1 - m_a3_proc_1 <= 0
 c36: y_a3_proc_1 >= 0
 c37: y_a3_proc_2 - m_a3_proc_2 <= 0
 c38: y_a3_proc_2 >= 0
 c39: y_a3_proc_3 - m_a3_proc_3 <= 0
 c40: y_a3_proc_3 >= 0
 c41: tau - 0.001373626374 m_a4_proc_0 - 0.001477104874 m_a4_proc_1
      - 0.003571428571 m_a4_proc_2 <= 0
 c42: y_a4_proc_0 + y_a4_proc_1 + y_a4_proc_2 - tau = 0
 c43: m_a4_proc_0 + m_a4_proc_1 + m_a4_proc_2 = 1
 c44: y_a4_proc_0 - m_a4_proc_0 <= 0
 c45: y_a4_proc_0 >= 0
 c46: y_a4_proc_1 - m_a4_proc_1 <= 0
 c47: y_a4_proc_1 >= 0
 c48: y_a4_proc_2 - m_a4_proc_2 <= 0
 c49: y_a4_proc_2 >= 0
 c50: tau - 0.001046025105 m_a5_proc_0 - 0.000924214418 m_a5_proc_1
      - 0.001314060447 m_a5_proc_2 - 0.001355013550 m_a5_proc_3 <= 0
 c51: y_a5_proc_0 + y_a5_proc_1 + y_a5_proc_2 + y_a5_proc_3 - tau = 0
 c52: m_a5_proc_0 + m_a5_proc_1 + m_a5_proc_2 + m_a5_proc_3 = 1
 c53: y_a5_proc_0 - m_a5_proc_0 <= 0
 c54: y_a5_proc_0 >= 0
 c55: y_a5_proc_1 - m_a5_proc_1 <= 0
 c56: y_a5_proc_1 >= 0
 c57: y_a5_proc_2 - m_a5_proc_2 <= 0
 c58: y_a5_proc_2 >= 0
 c59: y_a5_proc_3 - m_a5_proc_3 <= 0
 c60: y_a5_proc_3 >= 0
 c61: tau - 0.001193317422 m_a6_proc_0 - 0.000792393027 m_a6_proc_2
      - 0.001042752868 m_a6_proc_3 <= 0
 c62: y_a6_proc_0 + y_a6_proc_2 + y_a6_proc_3 - tau = 0
 c63: m_a6_proc_0 + m_a6_proc_2 + m_a6_proc_3 = 1
 c64: y_a6_proc_0 - m_a6_proc_0 <= 0
 c65: y_a6_proc_0 >= 0
 c66: y_a6_proc_2 - m_a6_proc_2 <= 0
 c67: y_a6_proc_2 >= 0
 c68: y_a6_proc_3 - m_a6_proc_3 <= 0
 c69: y_a6_proc_3 >= 0
 c70: tau - 0.001064962726 m_a7_proc_0 - 0.001212121212 m_a7_proc_1 <= 0
 c71: y_a7_proc_0 + y_a7_proc_1 - tau = 0
 c72: m_a7_proc_0 + m_a7_proc_1 = 1
 c73: y_a7_proc_0 - m_a7_proc_0 <= 0
 c74: y_a7_proc_0 >= 0
 c75: y_a7_proc_1 - m_a7_proc_1 <= 0
 c76: y_a7_proc_1 >= 0
 c77: tau - 0.002481389578 m_a8_proc_0 - 0.001428571429 m_a8_proc_2 <= 0
 c78: y_a8_proc_0 + y_a8_proc_2 - tau = 0
 c79: m_a8_proc_0 + m_a8_proc_2 = 1
 c80: y_a8_proc_0 - m_a8_proc_0 <= 0
 c81: y_a8_proc_0 >= 0
 c82: y_a8_proc_2 - m_a8_proc_2 <= 0
 c83: y_a8_proc_2 >= 0
 c84: tau - 0.001146788991 m_a9_proc_0 - 0.000840336134 m_a9_proc_1
      - 0.001751313485 m_a9_proc_3 <= 0
 c85: y_a9_proc_0 + y_a9_proc_1 + y_a9_proc_3 - tau = 0
 c86: m_a9_proc_0 + m_a9_proc_1 + m_a9_proc_3 = 1
 c87: y_a9_proc_0 - m_a9_proc_0 <= 0
 c88: y_a9_proc_0 >= 0
 c89: y_a9_proc_1 - m_a9_proc_1 <= 0
 c90: y_a9_proc_1 >= 0
 c91: y_a9_proc_3 - m_a9_proc_3 <= 0
 c92: y_a9_proc_3 >= 0
 c93: u_a1 - u_a0 - 1118 y_a0_proc_0 - 527 y_a0_proc_2 - 812 y_a0_proc_3 >= 0
 c94: u_a0 - u_a2 - 868 y_a2_proc_0 - 203 y_a2_proc_1 - 1027 y_a2_proc_2
      - 1011 y_a2_proc_3 >= 0
 c95: u_a2 - u_a3 - 646 y_a3_proc_0 - 898 y_a3_proc_1 - 1076 y_a3_proc_2
      - 917 y_a3_proc_3 >= -1
 c96: u_a4 - u_a1 - 773 y_a1_proc_0 - 914 y_a1_proc_1 - 1072 y_a1_proc_3 >= 0
 c97: u_a5 - u_a2 - 868 y_a2_proc_0 - 203 y_a2_proc_1 - 1027 y_a2_proc_2
      - 1011 y_a2_proc_3 >= 0
 c98: u_a3 - u_a6 - 838 y_a6_proc_0 - 1262 y_a6_proc_2 - 959 y_a6_proc_3 >= 0
 c99: u_a2 - u_a7 - 939 y_a7_proc_0 - 825 y_a7_proc_1 >= 0
 c100: u_a6 - u_a8 - 403 y_a8_proc_0 - 700 y_a8_proc_2 >= 0
 c101: u_a7 - u_a9 - 872 y_a9_proc_0 - 1190 y_a9_proc_1 - 571 y_a9_proc_3 >= 0
 c102: u_a3 - u_a4 - 728 y_a4_proc_0 - 677 y_a4_proc_1 - 280 y_a4_proc_2 >= 0
 c103: u_a9 - u_a6 - 838 y_a6_proc_0 - 1262 y_a6_proc_2 - 959 y_a6_proc_3 >= -1
 c104: u_a8 - u_a4 - 728 y_a4_proc_0 - 677 y_a4_proc_1 - 280 y_a4_proc_2 >= 0
 c105: u_a7 - u_a2 - 868 y_a2_proc_0 - 203 y_a2_proc_1 - 1027 y_a2_proc_2
       - 1011 y_a2_proc_3 >= -1
 c106: u_a7 - u_a5 - 956 y_a5_proc_0 - 1082 y_a5_proc_1 - 761 y_a5_proc_2
       - 738 y_a5_proc_3 >= -1
 c107: u_a9 - u_a5 - 956 y_a5_proc_0 - 1082 y_a5_proc_1 - 761 y_a5_proc_2
       - 738 y_a5_proc_3 >= -1
 c108: u_a1 + K_a0_a1 - 1262 m_a0_proc_3 - 1262 m_a1_proc_3 - u_a0
       - 812 y_a0_proc_3 >= -2524
 c109: u_a1 + K_a0_a1 - 1262 m_a0_proc_0 - 1262 m_a1_proc_0 - u_a0
       - 1118 y_a0_proc_0 >= -2524
 c110: K_a0_a1 + K_a1_a0 = 1
 c111: u_a0 + K_a1_a0 - 1262 m_a0_proc_3 - 1262 m_a1_proc_3 - u_a1
       - 1072 y_a1_proc_3 >= -2524
 c112: u_a0 + K_a1_a0 - 1262 m_a0_proc_0 - 1262 m_a1_proc_0 - u_a1
       - 773 y_a1_proc_0 >= -2524
 c113: K_a0_a1 + K_a1_a0 = 1
 c114: u_a2 + K_a0_a2 - 1262 m_a0_proc_2 - 1262 m_a2_proc_2 - u_a0
       - 527 y_a0_proc_2 >= -2524
 c115: u_a2 + K_a0_a2 - 1262 m_a0_proc_3 - 1262 m_a2_proc_3 - u_a0
       - 812 y_a0_proc_3 >= -2524
 c116: u_a2 + K_a0_a2 - 1262 m_a0_proc_0 - 1262 m_a2_proc_0 - u_a0
       - 1118 y_a0_proc_0 >= -2524
 c117: K_a0_a2 + K_a2_a0 = 1
 c118: u_a0 + K_a2_a0 - 1262 m_a0_proc_2 - 1262 m_a2_proc_2 - u_a2
       - 1027 y_a2_proc_2 >= -2524
 c119: u_a0 + K_a2_a0 - 1262 m_a0_proc_3 - 1262 m_a2_proc_3 - u_a2
       - 1011 y_a2_proc_3 >= -2524
 c120: u_a0 + K_a2_a0 - 1262 m_a0_proc_0 - 1262 m_a2_proc_0 - u_a2
       - 868 y_a2_proc_0 >= -2524
 c121: K_a0_a2 + K_a2_a0 = 1
 c122: u_a3 + K_a0_a3 - 1262 m_a0_proc_2 - 1262 m_a3_proc_2 - u_a0
       - 527 y_a0_proc_2 >= -2524
 c123: u_a3 + K_a0_a3 - 1262 m_a0_proc_3 - 1262 m_a3_proc_3 - u_a0
       - 812 y_a0_proc_3 >= -2524
 c124: u_a3 + K_a0_a3 - 1262 m_a0_proc_0 - 1262 m_a3_proc_0 - u_a0
       - 1118 y_a0_proc_0 >= -2524
 c125: K_a0_a3 + K_a3_a0 = 1
 c126: u_a0 + K_a3_a0 - 1262 m_a0_proc_2 - 1262 m_a3_proc_2 - u_a3
       - 1076 y_a3_proc_2 >= -2524
 c127: u_a0 + K_a3_a0 - 1262 m_a0_proc_3 - 1262 m_a3_proc_3 - u_a3
       - 917 y_a3_proc_3 >= -2524
 c128: u_a0 + K_a3_a0 - 1262 m_a0_proc_0 - 1262 m_a3_proc_0 - u_a3
       - 646 y_a3_proc_0 >= -2524
 c129: K_a0_a3 + K_a3_a0 = 1
 c130: u_a4 + K_a0_a4 - 1262 m_a0_proc_2 - 1262 m_a4_proc_2 - u_a0
       - 527 y_a0_proc_2 >= -2524
 c131: u_a4 + K_a0_a4 - 1262 m_a0_proc_0 - 1262 m_a4_proc_0 - u_a0
       - 1118 y_a0_proc_0 >= -2524
 c132: K_a0_a4 + K_a4_a0 = 1
 c133: u_a0 + K_a4_a0 - 1262 m_a0_proc_2 - 1262 m_a4_proc_2 - u_a4
       - 280 y_a4_proc_2 >= -2524
 c134: u_a0 + K_a4_a0 - 1262 m_a0_proc_0 - 1262 m_a4_proc_0 - u_a4
       - 728 y_a4_proc_0 >= -2524
 c135: K_a0_a4 + K_a4_a0 = 1
 c136: u_a5 + K_a0_a5 - 1262 m_a0_proc_2 - 1262 m_a5_proc_2 - u_a0
       - 527 y_a0_proc_2 >= -2524
 c137: u_a5 + K_a0_a5 - 1262 m_a0_proc_3 - 1262 m_a5_proc_3 - u_a0
       - 812 y_a0_proc_3 >= -2524
 c138: u_a5 + K_a0_a5 - 1262 m_a0_proc_0 - 1262 m_a5_proc_0 - u_a0
       - 1118 y_a0_proc_0 >= -2524
 c139: K_a0_a5 + K_a5_a0 = 1
 c140: u_a0 + K_a5_a0 - 1262 m_a0_proc_2 - 1262 m_a5_proc_2 - u_a5
       - 761 y_a5_proc_2 >= -2524
 c141: u_a0 + K_a5_a0 - 1262 m_a0_proc_3 - 1262 m_a5_proc_3 - u_a5
       - 738 y_a5_proc_3 >= -2524
 c142: u_a0 + K_a5_a0 - 1262 m_a0_proc_0 - 1262 m_a5_proc_0 - u_a5
       - 956 y_a5_proc_0 >= -2524
 c143: K_a0_a5 + K_a5_a0 = 1
 c144: u_a6 + K_a0_a6 - 1262 m_a0_proc_2 - 1262 m_a6_proc_2 - u_a0
       - 527 y_a0_proc_2 >= -2524
 c145: u_a6 + K_a0_a6 - 1262 m_a0_proc_3 - 1262 m_a6_proc_3 - u_a0
       - 812 y_a0_proc_3 >= -2524
 c146: u_a6 + K_a0_a6 - 1262 m_a0_proc_0 - 1262 m_a6_proc_0 - u_a0
       - 1118 y_a0_proc_0 >= -2524
 c147: K_a0_a6 + K_a6_a0 = 1
 c148: u_a0 + K_a6_a0 - 1262 m_a0_proc_2 - 1262 m_a6_proc_2 - u_a6
       - 1262 y_a6_proc_2 >= -2524
 c149: u_a0 + K_a6_a0 - 1262 m_a0_proc_3 - 1262 m_a6_proc_3 - u_a6
       - 959 y_a6_proc_3 >= -2524
 c150: u_a0 + K_a6_a0 - 1262 m_a0_proc_0 - 1262 m_a6_proc_0 - u_a6
       - 838 y_a6_proc_0 >= -2524
 c151: K_a0_a6 + K_a6_a0 = 1
 c152: u_a7 + K_a0_a7 - 1262 m_a0_proc_0 - 1262 m_a7_proc_0 - u_a0
       - 1118 y_a0_proc_0 >= -2524
 c153: K_a0_a7 + K_a7_a0 = 1
 c154: u_a0 + K_a7_a0 - 1262 m_a0_proc_0 - 1262 m_a7_proc_0 - u_a7
       - 939 y_a7_proc_0 >= -2524
 c155: K_a0_a7 + K_a7_a0 = 1
 c156: u_a8 + K_a0_a8 - 1262 m_a0_proc_2 - 1262 m_a8_proc_2 - u_a0
       - 527 y_a0_proc_2 >= -2524
 c157: u_a8 + K_a0_a8 - 1262 m_a0_proc_0 - 1262 m_a8_proc_0 - u_a0
       - 1118 y_a0_proc_0 >= -2524
 c158: K_a0_a8 + K_a8_a0 = 1
 c159: u_a0 + K_a8_a0 - 1262 m_a0_proc_2 - 1262 m_a8_proc_2 - u_a8
       - 700 y_a8_proc_2 >= -2524
 c160: u_a0 + K_a8_a0 - 1262 m_a0_proc_0 - 1262 m_a8_proc_0 - u_a8
       - 403 y_a8_proc_0 >= -2524
 c161: K_a0_a8 + K_a8_a0 = 1
 c162: u_a9 + K_a0_a9 - 1262 m_a0_proc_3 - 1262 m_a9_proc_3 - u_a0
       - 812 y_a0_proc_3 >= -2524
 c163: u_a9 + K_a0_a9 - 1262 m_a0_proc_0 - 1262 m_a9_proc_0 - u_a0
       - 1118 y_a0_proc_0 >= -2524
 c164: K_a0_a9 + K_a9_a0 = 1
 c165: u_a0 + K_a9_a0 - 1262 m_a0_proc_3 - 1262 m_a9_proc_3 - u_a9
       - 571 y_a9_proc_3 >= -2524
 c166: u_a0 + K_a9_a0 - 1262 m_a0_proc_0 - 1262 m_a9_proc_0 - u_a9
       - 872 y_a9_proc_0 >= -2524
 c167: K_a0_a9 + K_a9_a0 = 1
 c168: u_a2 + K_a1_a2 - 1262 m_a1_proc_3 - 1262 m_a2_proc_3 - u_a1
       - 1072 y_a1_proc_3 >= -2524
 c169: u_a2 + K_a1_a2 - 1262 m_a1_proc_0 - 1262 m_a2_proc_0 - u_a1
       - 773 y_a1_proc_0 >= -2524
 c170: u_a2 + K_a1_a2 - 1262 m_a1_proc_1 - 1262 m_a2_proc_1 - u_a1
       - 914 y_a1_proc_1 >= -2524
 c171: K_a1_a2 + K_a2_a1 = 1
 c172: u_a1 + K_a2_a1 - 1262 m_a1_proc_3 - 1262 m_a2_proc_3 - u_a2
       - 1011 y_a2_proc_3 >= -2524
 c173: u_a1 + K_a2_a1 - 1262 m_a1_proc_0 - 1262 m_a2_proc_0 - u_a2
       - 868 y_a2_proc_0 >= -2524
 c174: u_a1 + K_a2_a1 - 1262 m_a1_proc_1 - 1262 m_a2_proc_1 - u_a2
       - 203 y_a2_proc_1 >= -2524
 c175: K_a1_a2 + K_a2_a1 = 1
 c176: u_a3 + K_a1_a3 - 1262 m_a1_proc_3 - 1262 m_a3_proc_3 - u_a1
       - 1072 y_a1_proc_3 >= -2524
 c177: u_a3 + K_a1_a3 - 1262 m_a1_proc_0 - 1262 m_a3_proc_0 - u_a1
       - 773 y_a1_proc_0 >= -2524
 c178: u_a3 + K_a1_a3 - 1262 m_a1_proc_1 - 1262 m_a3_proc_1 - u_a1
       - 914 y_a1_proc_1 >= -2524
 c179: K_a1_a3 + K_a3_a1 = 1
 c180: u_a1 + K_a3_a1 - 1262 m_a1_proc_3 - 1262 m_a3_proc_3 - u_a3
       - 917 y_a3_proc_3 >= -2524
 c181: u_a1 + K_a3_a1 - 1262 m_a1_proc_0 - 1262 m_a3_proc_0 - u_a3
       - 646 y_a3_proc_0 >= -2524
 c182: u_a1 + K_a3_a1 - 1262 m_a1_proc_1 - 1262 m_a3_proc_1 - u_a3
       - 898 y_a3_proc_1 >= -2524
 c183: K_a1_a3 + K_a3_a1 = 1
 c184: u_a4 + K_a1_a4 - 1262 m_a1_proc_0 - 1262 m_a4_proc_0 - u_a1
       - 773 y_a1_proc_0 >= -2524
 c185: u_a4 + K_a1_a4 - 1262 m_a1_proc_1 - 1262 m_a4_proc_1 - u_a1
       - 914 y_a1_proc_1 >= -2524
 c186: K_a1_a4 + K_a4_a1 = 1
 c187: u_a1 + K_a4_a1 - 1262 m_a1_proc_0 - 1262 m_a4_proc_0 - u_a4
       - 728 y_a4_proc_0 >= -2524
 c188: u_a1 + K_a4_a1 - 1262 m_a1_proc_1 - 1262 m_a4_proc_1 - u_a4
       - 677 y_a4_proc_1 >= -2524
 c189: K_a1_a4 + K_a4_a1 = 1
 c190: u_a5 + K_a1_a5 - 1262 m_a1_proc_3 - 1262 m_a5_proc_3 - u_a1
       - 1072 y_a1_proc_3 >= -2524
 c191: u_a5 + K_a1_a5 - 1262 m_a1_proc_0 - 1262 m_a5_proc_0 - u_a1
       - 773 y_a1_proc_0 >= -2524
 c192: u_a5 + K_a1_a5 - 1262 m_a1_proc_1 - 1262 m_a5_proc_1 - u_a1
       - 914 y_a1_proc_1 >= -2524
 c193: K_a1_a5 + K_a5_a1 = 1
 c194: u_a1 + K_a5_a1 - 1262 m_a1_proc_3 - 1262 m_a5_proc_3 - u_a5
       - 738 y_a5_proc_3 >= -2524
 c195: u_a1 + K_a5_a1 - 1262 m_a1_proc_0 - 1262 m_a5_proc_0 - u_a5
       - 956 y_a5_proc_0 >= -2524
 c196: u_a1 + K_a5_a1 - 1262 m_a1_proc_1 - 1262 m_a5_proc_1 - u_a5
       - 1082 y_a5_proc_1 >= -2524
 c197: K_a1_a5 + K_a5_a1 = 1
 c198: u_a6 + K_a1_a6 - 1262 m_a1_proc_3 - 1262 m_a6_proc_3 - u_a1
       - 1072 y_a1_proc_3 >= -2524
 c199: u_a6 + K_a1_a6 - 1262 m_a1_proc_0 - 1262 m_a6_proc_0 - u_a1
       - 773 y_a1_proc_0 >= -2524
 c200: K_a1_a6 + K_a6_a1 = 1
 c201: u_a1 + K_a6_a1 - 1262 m_a1_proc_3 - 1262 m_a6_proc_3 - u_a6
       - 959 y_a6_proc_3 >= -2524
 c202: u_a1 + K_a6_a1 - 1262 m_a1_proc_0 - 1262 m_a6_proc_0 - u_a6
       - 838 y_a6_proc_0 >= -2524
 c203: K_a1_a6 + K_a6_a1 = 1
 c204: u_a7 + K_a1_a7 - 1262 m_a1_proc_0 - 1262 m_a7_proc_0 - u_a1
       - 773 y_a1_proc_0 >= -2524
 c205: u_a7 + K_a1_a7 - 1262 m_a1_proc_1 - 1262 m_a7_proc_1 - u_a1
       - 914 y_a1_proc_1 >= -2524
 c206: K_a1_a7 + K_a7_a1 = 1
 c207: u_a1 + K_a7_a1 - 1262 m_a1_proc_0 - 1262 m_a7_proc_0 - u_a7
       - 939 y_a7_proc_0 >= -2524
 c208: u_a1 + K_a7_a1 - 1262 m_a1_proc_1 - 1262 m_a7_proc_1 - u_a7
       - 825 y_a7_proc_1 >= -2524
 c209: K_a1_a7 + K_a7_a1 = 1
 c210: u_a8 + K_a1_a8 - 1262 m_a1_proc_0 - 1262 m_a8_proc_0 - u_a1
       - 773 y_a1_proc_0 >= -2524
 c211: K_a1_a8 + K_a8_a1 = 1
 c212: u_a1 + K_a8_a1 - 1262 m_a1_proc_0 - 1262 m_a8_proc_0 - u_a8
       - 403 y_a8_proc_0 >= -2524
 c213: K_a1_a8 + K_a8_a1 = 1
 c214: u_a9 + K_a1_a9 - 1262 m_a1_proc_3 - 1262 m_a9_proc_3 - u_a1
       - 1072 y_a1_proc_3 >= -2524
 c215: u_a9 + K_a1_a9 - 1262 m_a1_proc_0 - 1262 m_a9_proc_0 - u_a1
       - 773 y_a1_proc_0 >= -2524
 c216: u_a9 + K_a1_a9 - 1262 m_a1_proc_1 - 1262 m_a9_proc_1 - u_a1
       - 914 y_a1_proc_1 >= -2524
 c217: K_a1_a9 + K_a9_a1 = 1
 c218: u_a1 + K_a9_a1 - 1262 m_a1_proc_3 - 1262 m_a9_proc_3 - u_a9
       - 571 y_a9_proc_3 >= -2524
 c219: u_a1 + K_a9_a1 - 1262 m_a1_proc_0 - 1262 m_a9_proc_0 - u_a9
       - 872 y_a9_proc_0 >= -2524
 c220: u_a1 + K_a9_a1 - 1262 m_a1_proc_1 - 1262 m_a9_proc_1 - u_a9
       - 1190 y_a9_proc_1 >= -2524
 c221: K_a1_a9 + K_a9_a1 = 1
 c222: u_a3 + K_a2_a3 - 1262 m_a2_proc_2 - 1262 m_a3_proc_2 - u_a2
       - 1027 y_a2_proc_2 >= -2524
 c223: u_a3 + K_a2_a3 - 1262 m_a2_proc_3 - 1262 m_a3_proc_3 - u_a2
       - 1011 y_a2_proc_3 >= -2524
 c224: u_a3 + K_a2_a3 - 1262 m_a2_proc_0 - 1262 m_a3_proc_0 - u_a2
       - 868 y_a2_proc_0 >= -2524
 c225: u_a3 + K_a2_a3 - 1262 m_a2_proc_1 - 1262 m_a3_proc_1 - u_a2
       - 203 y_a2_proc_1 >= -2524
 c226: K_a2_a3 + K_a3_a2 = 1
 c227: u_a2 + K_a3_a2 - 1262 m_a2_proc_2 - 1262 m_a3_proc_2 - u_a3
       - 1076 y_a3_proc_2 >= -2524
 c228: u_a2 + K_a3_a2 - 1262 m_a2_proc_3 - 1262 m_a3_proc_3 - u_a3
       - 917 y_a3_proc_3 >= -2524
 c229: u_a2 + K_a3_a2 - 1262 m_a2_proc_0 - 1262 m_a3_proc_0 - u_a3
       - 646 y_a3_proc_0 >= -2524
 c230: u_a2 + K_a3_a2 - 1262 m_a2_proc_1 - 1262 m_a3_proc_1 - u_a3
       - 898 y_a3_proc_1 >= -2524
 c231: K_a2_a3 + K_a3_a2 = 1
 c232: u_a4 + K_a2_a4 - 1262 m_a2_proc_2 - 1262 m_a4_proc_2 - u_a2
       - 1027 y_a2_proc_2 >= -2524
 c233: u_a4 + K_a2_a4 - 1262 m_a2_proc_0 - 1262 m_a4_proc_0 - u_a2
       - 868 y_a2_proc_0 >= -2524
 c234: u_a4 + K_a2_a4 - 1262 m_a2_proc_1 - 1262 m_a4_proc_1 - u_a2
       - 203 y_a2_proc_1 >= -2524
 c235: K_a2_a4 + K_a4_a2 = 1
 c236: u_a2 + K_a4_a2 - 1262 m_a2_proc_2 - 1262 m_a4_proc_2 - u_a4
       - 280 y_a4_proc_2 >= -2524
 c237: u_a2 + K_a4_a2 - 1262 m_a2_proc_0 - 1262 m_a4_proc_0 - u_a4
       - 728 y_a4_proc_0 >= -2524
 c238: u_a2 + K_a4_a2 - 1262 m_a2_proc_1 - 1262 m_a4_proc_1 - u_a4
       - 677 y_a4_proc_1 >= -2524
 c239: K_a2_a4 + K_a4_a2 = 1
 c240: u_a5 + K_a2_a5 - 1262 m_a2_proc_2 - 1262 m_a5_proc_2 - u_a2
       - 1027 y_a2_proc_2 >= -2524
 c241: u_a5 + K_a2_a5 - 1262 m_a2_proc_3 - 1262 m_a5_proc_3 - u_a2
       - 1011 y_a2_proc_3 >= -2524
 c242: u_a5 + K_a2_a5 - 1262 m_a2_proc_0 - 1262 m_a5_proc_0 - u_a2
       - 868 y_a2_proc_0 >= -2524
 c243: u_a5 + K_a2_a5 - 1262 m_a2_proc_1 - 1262 m_a5_proc_1 - u_a2
       - 203 y_a2_proc_1 >= -2524
 c244: K_a2_a5 + K_a5_a2 = 1
 c245: u_a2 + K_a5_a2 - 1262 m_a2_proc_2 - 1262 m_a5_proc_2 - u_a5
       - 761 y_a5_proc_2 >= -2524
 c246: u_a2 + K_a5_a2 - 1262 m_a2_proc_3 - 1262 m_a5_proc_3 - u_a5
       - 738 y_a5_proc_3 >= -2524
 c247: u_a2 + K_a5_a2 - 1262 m_a2_proc_0 - 1262 m_a5_proc_0 - u_a5
       - 956 y_a5_proc_0 >= -2524
 c248: u_a2 + K_a5_a2 - 1262 m_a2_proc_1 - 1262 m_a5_proc_1 - u_a5
       - 1082 y_a5_proc_1 >= -2524
 c249: K_a2_a5 + K_a5_a2 = 1
 c250: u_a6 + K_a2_a6 - 1262 m_a2_proc_2 - 1262 m_a6_proc_2 - u_a2
       - 1027 y_a2_proc_2 >= -2524
 c251: u_a6 + K_a2_a6 - 1262 m_a2_proc_3 - 1262 m_a6_proc_3 - u_a2
       - 1011 y_a2_proc_3 >= -2524
 c252: u_a6 + K_a2_a6 - 1262 m_a2_proc_0 - 1262 m_a6_proc_0 - u_a2
       - 868 y_a2_proc_0 >= -2524
 c253: K_a2_a6 + K_a6_a2 = 1
 c254: u_a2 + K_a6_a2 - 1262 m_a2_proc_2 - 1262 m_a6_proc_2 - u_a6
       - 1262 y_a6_proc_2 >= -2524
 c255: u_a2 + K_a6_a2 - 1262 m_a2_proc_3 - 1262 m_a6_proc_3 - u_a6
       - 959 y_a6_proc_3 >= -2524
 c256: u_a2 + K_a6_a2 - 1262 m_a2_proc_0 - 1262 m_a6_proc_0 - u_a6
       - 838 y_a6_proc_0 >= -2524
 c257: K_a2_a6 + K_a6_a2 = 1
 c258: u_a7 + K_a2_a7 - 1262 m_a2_proc_0 - 1262 m_a7_proc_0 - u_a2
       - 868 y_a2_proc_0 >= -2524
 c259: u_a7 + K_a2_a7 - 1262 m_a2_proc_1 - 1262 m_a7_proc_1 - u_a2
       - 203 y_a2_proc_1 >= -2524
 c260: K_a2_a7 + K_a7_a2 = 1
 c261: u_a2 + K_a7_a2 - 1262 m_a2_proc_0 - 1262 m_a7_proc_0 - u_a7
       - 939 y_a7_proc_0 >= -2524
 c262: u_a2 + K_a7_a2 - 1262 m_a2_proc_1 - 1262 m_a7_proc_1 - u_a7
       - 825 y_a7_proc_1 >= -2524
 c263: K_a2_a7 + K_a7_a2 = 1
 c264: u_a8 + K_a2_a8 - 1262 m_a2_proc_2 - 1262 m_a8_proc_2 - u_a2
       - 1027 y_a2_proc_2 >= -2524
 c265: u_a8 + K_a2_a8 - 1262 m_a2_proc_0 - 1262 m_a8_proc_0 - u_a2
       - 868 y_a2_proc_0 >= -2524
 c266: K_a2_a8 + K_a8_a2 = 1
 c267: u_a2 + K_a8_a2 - 1262 m_a2_proc_2 - 1262 m_a8_proc_2 - u_a8
       - 700 y_a8_proc_2 >= -2524
 c268: u_a2 + K_a8_a2 - 1262 m_a2_proc_0 - 1262 m_a8_proc_0 - u_a8
       - 403 y_a8_proc_0 >= -2524
 c269: K_a2_a8 + K_a8_a2 = 1
 c270: u_a9 + K_a2_a9 - 1262 m_a2_proc_3 - 1262 m_a9_proc_3 - u_a2
       - 1011 y_a2_proc_3 >= -2524
 c271: u_a9 + K_a2_a9 - 1262 m_a2_proc_0 - 1262 m_a9_proc_0 - u_a2
       - 868 y_a2_proc_0 >= -2524
 c272: u_a9 + K_a2_a9 - 1262 m_a2_proc_1 - 1262 m_a9_proc_1 - u_a2
       - 203 y_a2_proc_1 >= -2524
 c273: K_a2_a9 + K_a9_a2 = 1
 c274: u_a2 + K_a9_a2 - 1262 m_a2_proc_3 - 1262 m_a9_proc_3 - u_a9
       - 571 y_a9_proc_3 >= -2524
 c275: u_a2 + K_a9_a2 - 1262 m_a2_proc_0 - 1262 m_a9_proc_0 - u_a9
       - 872 y_a9_proc_0 >= -2524
 c276: u_a2 + K_a9_a2 - 1262 m_a2_proc_1 - 1262 m_a9_proc_1 - u_a9
       - 1190 y_a9_proc_1 >= -2524
 c277: K_a2_a9 + K_a9_a2 = 1
 c278: u_a4 + K_a3_a4 - 1262 m_a3_proc_2 - 1262 m_a4_proc_2 - u_a3
       - 1076 y_a3_proc_2 >= -2524
 c279: u_a4 + K_a3_a4 - 1262 m_a3_proc_0 - 1262 m_a4_proc_0 - u_a3
       - 646 y_a3_proc_0 >= -2524
 c280: u_a4 + K_a3_a4 - 1262 m_a3_proc_1 - 1262 m_a4_proc_1 - u_a3
       - 898 y_a3_proc_1 >= -2524
 c281: K_a3_a4 + K_a4_a3 = 1
 c282: u_a3 + K_a4_a3 - 1262 m_a3_proc_2 - 1262 m_a4_proc_2 - u_a4
       - 280 y_a4_proc_2 >= -2524
 c283: u_a3 + K_a4_a3 - 1262 m_a3_proc_0 - 1262 m_a4_proc_0 - u_a4
       - 728 y_a4_proc_0 >= -2524
 c284: u_a3 + K_a4_a3 - 1262 m_a3_proc_1 - 1262 m_a4_proc_1 - u_a4
       - 677 y_a4_proc_1 >= -2524
 c285: K_a3_a4 + K_a4_a3 = 1
 c286: u_a5 + K_a3_a5 - 1262 m_a3_proc_2 - 1262 m_a5_proc_2 - u_a3
       - 1076 y_a3_proc_2 >= -2524
 c287: u_a5 + K_a3_a5 - 1262 m_a3_proc_3 - 1262 m_a5_proc_3 - u_a3
       - 917 y_a3_proc_3 >= -2524
 c288: u_a5 + K_a3_a5 - 1262 m_a3_proc_0 - 1262 m_a5_proc_0 - u_a3
       - 646 y_a3_proc_0 >= -2524
 c289: u_a5 + K_a3_a5 - 1262 m_a3_proc_1 - 1262 m_a5_proc_1 - u_a3
       - 898 y_a3_proc_1 >= -2524
 c290: K_a3_a5 + K_a5_a3 = 1
 c291: u_a3 + K_a5_a3 - 1262 m_a3_proc_2 - 1262 m_a5_proc_2 - u_a5
       - 761 y_a5_proc_2 >= -2524
 c292: u_a3 + K_a5_a3 - 1262 m_a3_proc_3 - 1262 m_a5_proc_3 - u_a5
       - 738 y_a5_proc_3 >= -2524
 c293: u_a3 + K_a5_a3 - 1262 m_a3_proc_0 - 1262 m_a5_proc_0 - u_a5
       - 956 y_a5_proc_0 >= -2524
 c294: u_a3 + K_a5_a3 - 1262 m_a3_proc_1 - 1262 m_a5_proc_1 - u_a5
       - 1082 y_a5_proc_1 >= -2524
 c295: K_a3_a5 + K_a5_a3 = 1
 c296: u_a6 + K_a3_a6 - 1262 m_a3_proc_2 - 1262 m_a6_proc_2 - u_a3
       - 1076 y_a3_proc_2 >= -2524
 c297: u_a6 + K_a3_a6 - 1262 m_a3_proc_3 - 1262 m_a6_proc_3 - u_a3
       - 917 y_a3_proc_3 >= -2524
 c298: u_a6 + K_a3_a6 - 1262 m_a3_proc_0 - 1262 m_a6_proc_0 - u_a3
       - 646 y_a3_proc_0 >= -2524
 c299: K_a3_a6 + K_a6_a3 = 1
 c300: u_a3 + K_a6_a3 - 1262 m_a3_proc_2 - 1262 m_a6_proc_2 - u_a6
       - 1262 y_a6_proc_2 >= -2524
 c301: u_a3 + K_a6_a3 - 1262 m_a3_proc_3 - 1262 m_a6_proc_3 - u_a6
       - 959 y_a6_proc_3 >= -2524
 c302: u_a3 + K_a6_a3 - 1262 m_a3_proc_0 - 1262 m_a6_proc_0 - u_a6
       - 838 y_a6_proc_0 >= -2524
 c303: K_a3_a6 + K_a6_a3 = 1
 c304: u_a7 + K_a3_a7 - 1262 m_a3_proc_0 - 1262 m_a7_proc_0 - u_a3
       - 646 y_a3_proc_0 >= -2524
 c305: u_a7 + K_a3_a7 - 1262 m_a3_proc_1 - 1262 m_a7_proc_1 - u_a3
       - 898 y_a3_proc_1 >= -2524
 c306: K_a3_a7 + K_a7_a3 = 1
 c307: u_a3 + K_a7_a3 - 1262 m_a3_proc_0 - 1262 m_a7_proc_0 - u_a7
       - 939 y_a7_proc_0 >= -2524
 c308: u_a3 + K_a7_a3 - 1262 m_a3_proc_1 - 1262 m_a7_proc_1 - u_a7
       - 825 y_a7_proc_1 >= -2524
 c309: K_a3_a7 + K_a7_a3 = 1
 c310: u_a8 + K_a3_a8 - 1262 m_a3_proc_2 - 1262 m_a8_proc_2 - u_a3
       - 1076 y_a3_proc_2 >= -2524
 c311: u_a8 + K_a3_a8 - 1262 m_a3_proc_0 - 1262 m_a8_proc_0 - u_a3
       - 646 y_a3_proc_0 >= -2524
 c312: K_a3_a8 + K_a8_a3 = 1
 c313: u_a3 + K_a8_a3 - 1262 m_a3_proc_2 - 1262 m_a8_proc_2 - u_a8
       - 700 y_a8_proc_2 >= -2524
 c314: u_a3 + K_a8_a3 - 1262 m_a3_proc_0 - 1262 m_a8_proc_0 - u_a8
       - 403 y_a8_proc_0 >= -2524
 c315: K_a3_a8 + K_a8_a3 = 1
 c316: u_a9 + K_a3_a9 - 1262 m_a3_proc_3 - 1262 m_a9_proc_3 - u_a3
       - 917 y_a3_proc_3 >= -2524
 c317: u_a9 + K_a3_a9 - 1262 m_a3_proc_0 - 1262 m_a9_proc_0 - u_a3
       - 646 y_a3_proc_0 >= -2524
 c318: u_a9 + K_a3_a9 - 1262 m_a3_proc_1 - 1262 m_a9_proc_1 - u_a3
       - 898 y_a3_proc_1 >= -2524
 c319: K_a3_a9 + K_a9_a3 = 1
 c320: u_a3 + K_a9_a3 - 1262 m_a3_proc_3 - 1262 m_a9_proc_3 - u_a9
       - 571 y_a9_proc_3 >= -2524
 c321: u_a3 + K_a9_a3 - 1262 m_a3_proc_0 - 1262 m_a9_proc_0 - u_a9
       - 872 y_a9_proc_0 >= -2524
 c322: u_a3 + K_a9_a3 - 1262 m_a3_proc_1 - 1262 m_a9_proc_1 - u_a9
       - 1190 y_a9_proc_1 >= -2524
 c323: K_a3_a9 + K_a9_a3 = 1
 c324: u_a5 + K_a4_a5 - 1262 m_a4_proc_2 - 1262 m_a5_proc_2 - u_a4
       - 280 y_a4_proc_2 >= -2524
 c325: u_a5 + K_a4_a5 - 1262 m_a4_proc_0 - 1262 m_a5_proc_0 - u_a4
       - 728 y_a4_proc_0 >= -2524
 c326: u_a5 + K_a4_a5 - 1262 m_a4_proc_1 - 1262 m_a5_proc_1 - u_a4
       - 677 y_a4_proc_1 >= -2524
 c327: K_a4_a5 + K_a5_a4 = 1
 c328: u_a4 + K_a5_a4 - 1262 m_a4_proc_2 - 1262 m_a5_proc_2 - u_a5
       - 761 y_a5_proc_2 >= -2524
 c329: u_a4 + K_a5_a4 - 1262 m_a4_proc_0 - 1262 m_a5_proc_0 - u_a5
       - 956 y_a5_proc_0 >= -2524
 c330: u_a4 + K_a5_a4 - 1262 m_a4_proc_1 - 1262 m_a5_proc_1 - u_a5
       - 1082 y_a5_proc_1 >= -2524
 c331: K_a4_a5 + K_a5_a4 = 1
 c332: u_a6 + K_a4_a6 - 1262 m_a4_proc_2 - 1262 m_a6_proc_2 - u_a4
       - 280 y_a4_proc_2 >= -2524
 c333: u_a6 + K_a4_a6 - 1262 m_a4_proc_0 - 1262 m_a6_proc_0 - u_a4
       - 728 y_a4_proc_0 >= -2524
 c334: K_a4_a6 + K_a6_a4 = 1
 c335: u_a4 + K_a6_a4 - 1262 m_a4_proc_2 - 1262 m_a6_proc_2 - u_a6
       - 1262 y_a6_proc_2 >= -2524
 c336: u_a4 + K_a6_a4 - 1262 m_a4_proc_0 - 1262 m_a6_proc_0 - u_a6
       - 838 y_a6_proc_0 >= -2524
 c337: K_a4_a6 + K_a6_a4 = 1
 c338: u_a7 + K_a4_a7 - 1262 m_a4_proc_0 - 1262 m_a7_proc_0 - u_a4
       - 728 y_a4_proc_0 >= -2524
 c339: u_a7 + K_a4_a7 - 1262 m_a4_proc_1 - 1262 m_a7_proc_1 - u_a4
       - 677 y_a4_proc_1 >= -2524
 c340: K_a4_a7 + K_a7_a4 = 1
 c341: u_a4 + K_a7_a4 - 1262 m_a4_proc_0 - 1262 m_a7_proc_0 - u_a7
       - 939 y_a7_proc_0 >= -2524
 c342: u_a4 + K_a7_a4 - 1262 m_a4_proc_1 - 1262 m_a7_proc_1 - u_a7
       - 825 y_a7_proc_1 >= -2524
 c343: K_a4_a7 + K_a7_a4 = 1
 c344: u_a8 + K_a4_a8 - 1262 m_a4_proc_2 - 1262 m_a8_proc_2 - u_a4
       - 280 y_a4_proc_2 >= -2524
 c345: u_a8 + K_a4_a8 - 1262 m_a4_proc_0 - 1262 m_a8_proc_0 - u_a4
       - 728 y_a4_proc_0 >= -2524
 c346: K_a4_a8 + K_a8_a4 = 1
 c347: u_a4 + K_a8_a4 - 1262 m_a4_proc_2 - 1262 m_a8_proc_2 - u_a8
       - 700 y_a8_proc_2 >= -2524
 c348: u_a4 + K_a8_a4 - 1262 m_a4_proc_0 - 1262 m_a8_proc_0 - u_a8
       - 403 y_a8_proc_0 >= -2524
 c349: K_a4_a8 + K_a8_a4 = 1
 c350: u_a9 + K_a4_a9 - 1262 m_a4_proc_0 - 1262 m_a9_proc_0 - u_a4
       - 728 y_a4_proc_0 >= -2524
 c351: u_a9 + K_a4_a9 - 1262 m_a4_proc_1 - 1262 m_a9_proc_1 - u_a4
       - 677 y_a4_proc_1 >= -2524
 c352: K_a4_a9 + K_a9_a4 = 1
 c353: u_a4 + K_a9_a4 - 1262 m_a4_proc_0 - 1262 m_a9_proc_0 - u_a9
       - 872 y_a9_proc_0 >= -2524
 c354: u_a4 + K_a9_a4 - 1262 m_a4_proc_1 - 1262 m_a9_proc_1 - u_a9
       - 1190 y_a9_proc_1 >= -2524
 c355: K_a4_a9 + K_a9_a4 = 1
 c356: u_a6 + K_a5_a6 - 1262 m_a5_proc_2 - 1262 m_a6_proc_2 - u_a5
       - 761 y_a5_proc_2 >= -2524
 c357: u_a6 + K_a5_a6 - 1262 m_a5_proc_3 - 1262 m_a6_proc_3 - u_a5
       - 738 y_a5_proc_3 >= -2524
 c358: u_a6 + K_a5_a6 - 1262 m_a5_proc_0 - 1262 m_a6_proc_0 - u_a5
       - 956 y_a5_proc_0 >= -2524
 c359: K_a5_a6 + K_a6_a5 = 1
 c360: u_a5 + K_a6_a5 - 1262 m_a5_proc_2 - 1262 m_a6_proc_2 - u_a6
       - 1262 y_a6_proc_2 >= -2524
 c361: u_a5 + K_a6_a5 - 1262 m_a5_proc_3 - 1262 m_a6_proc_3 - u_a6
       - 959 y_a6_proc_3 >= -2524
 c362: u_a5 + K_a6_a5 - 1262 m_a5_proc_0 - 1262 m_a6_proc_0 - u_a6
       - 838 y_a6_proc_0 >= -2524
 c363: K_a5_a6 + K_a6_a5 = 1
 c364: u_a7 + K_a5_a7 - 1262 m_a5_proc_0 - 1262 m_a7_proc_0 - u_a5
       - 956 y_a5_proc_0 >= -2524
 c365: u_a7 + K_a5_a7 - 1262 m_a5_proc_1 - 1262 m_a7_proc_1 - u_a5
       - 1082 y_a5_proc_1 >= -2524
 c366: K_a5_a7 + K_a7_a5 = 1
 c367: u_a5 + K_a7_a5 - 1262 m_a5_proc_0 - 1262 m_a7_proc_0 - u_a7
       - 939 y_a7_proc_0 >= -2524
 c368: u_a5 + K_a7_a5 - 1262 m_a5_proc_1 - 1262 m_a7_proc_1 - u_a7
       - 825 y_a7_proc_1 >= -2524
 c369: K_a5_a7 + K_a7_a5 = 1
 c370: u_a8 + K_a5_a8 - 1262 m_a5_proc_2 - 1262 m_a8_proc_2 - u_a5
       - 761 y_a5_proc_2 >= -2524
 c371: u_a8 + K_a5_a8 - 1262 m_a5_proc_0 - 1262 m_a8_proc_0 - u_a5
       - 956 y_a5_proc_0 >= -2524
 c372: K_a5_a8 + K_a8_a5 = 1
 c373: u_a5 + K_a8_a5 - 1262 m_a5_proc_2 - 1262 m_a8_proc_2 - u_a8
       - 700 y_a8_proc_2 >= -2524
 c374: u_a5 + K_a8_a5 - 1262 m_a5_proc_0 - 1262 m_a8_proc_0 - u_a8
       - 403 y_a8_proc_0 >= -2524
 c375: K_a5_a8 + K_a8_a5 = 1
 c376: u_a9 + K_a5_a9 - 1262 m_a5_proc_3 - 1262 m_a9_proc_3 - u_a5
       - 738 y_a5_proc_3 >= -2524
 c377: u_a9 + K_a5_a9 - 1262 m_a5_proc_0 - 1262 m_a9_proc_0 - u_a5
       - 956 y_a5_proc_0 >= -2524
 c378: u_a9 + K_a5_a9 - 1262 m_a5_proc_1 - 1262 m_a9_proc_1 - u_a5
       - 1082 y_a5_proc_1 >= -2524
 c379: K_a5_a9 + K_a9_a5 = 1
 c380: u_a5 + K_a9_a5 - 1262 m_a5_proc_3 - 1262 m_a9_proc_3 - u_a9
       - 571 y_a9_proc_3 >= -2524
 c381: u_a5 + K_a9_a5 - 1262 m_a5_proc_0 - 1262 m_a9_proc_0 - u_a9
       - 872 y_a9_proc_0 >= -2524
 c382: u_a5 + K_a9_a5 - 1262 m_a5_proc_1 - 1262 m_a9_proc_1 - u_a9
       - 1190 y_a9_proc_1 >= -2524
 c383: K_a5_a9 + K_a9_a5 = 1
 c384: u_a7 + K_a6_a7 - 1262 m_a6_proc_0 - 1262 m_a7_proc_0 - u_a6
       - 838 y_a6_proc_0 >= -2524
 c385: K_a6_a7 + K_a7_a6 = 1
 c386: u_a6 + K_a7_a6 - 1262 m_a6_proc_0 - 1262 m_a7_proc_0 - u_a7
       - 939 y_a7_proc_0 >= -2524
 c387: K_a6_a7 + K_a7_a6 = 1
 c388: u_a8 + K_a6_a8 - 1262 m_a6_proc_2 - 1262 m_a8_proc_2 - u_a6
       - 1262 y_a6_proc_2 >= -2524
 c389: u_a8 + K_a6_a8 - 1262 m_a6_proc_0 - 1262 m_a8_proc_0 - u_a6
       - 838 y_a6_proc_0 >= -2524
 c390: K_a6_a8 + K_a8_a6 = 1
 c391: u_a6 + K_a8_a6 - 1262 m_a6_proc_2 - 1262 m_a8_proc_2 - u_a8
       - 700 y_a8_proc_2 >= -2524
 c392: u_a6 + K_a8_a6 - 1262 m_a6_proc_0 - 1262 m_a8_proc_0 - u_a8
       - 403 y_a8_proc_0 >= -2524
 c393: K_a6_a8 + K_a8_a6 = 1
 c394: u_a9 + K_a6_a9 - 1262 m_a6_proc_3 - 1262 m_a9_proc_3 - u_a6
       - 959 y_a6_proc_3 >= -2524
 c395: u_a9 + K_a6_a9 - 1262 m_a6_proc_0 - 1262 m_a9_proc_0 - u_a6
       - 838 y_a6_proc_0 >= -2524
 c396: K_a6_a9 + K_a9_a6 = 1
 c397: u_a6 + K_a9_a6 - 1262 m_a6_proc_3 - 1262 m_a9_proc_3 - u_a9
       - 571 y_a9_proc_3 >= -2524
 c398: u_a6 + K_a9_a6 - 1262 m_a6_proc_0 - 1262 m_a9_proc_0 - u_a9
       - 872 y_a9_proc_0 >= -2524
 c399: K_a6_a9 + K_a9_a6 = 1
 c400: u_a8 + K_a7_a8 - 1262 m_a7_proc_0 - 1262 m_a8_proc_0 - u_a7
       - 939 y_a7_proc_0 >= -2524
 c401: K_a7_a8 + K_a8_a7 = 1
 c402: u_a7 + K_a8_a7 - 1262 m_a7_proc_0 - 1262 m_a8_proc_0 - u_a8
       - 403 y_a8_proc_0 >= -2524
 c403: K_a7_a8 + K_a8_a7 = 1
 c404: u_a9 + K_a7_a9 - 1262 m_a7_proc_0 - 1262 m_a9_proc_0 - u_a7
       - 939 y_a7_proc_0 >= -2524
 c405: u_a9 + K_a7_a9 - 1262 m_a7_proc_1 - 1262 m_a9_proc_1 - u_a7
       - 825 y_a7_proc_1 >= -2524
 c406: K_a7_a9 + K_a9_a7 = 1
 c407: u_a7 + K_a9_a7 - 1262 m_a7_proc_0 - 1262 m_a9_proc_0 - u_a9
       - 872 y_a9_proc_0 >= -2524
 c408: u_a7 + K_a9_a7 - 1262 m_a7_proc_1 - 1262 m_a9_proc_1 - u_a9
       - 1190 y_a9_proc_1 >= -2524
 c409: K_a7_a9 + K_a9_a7 = 1
 c410: u_a9 + K_a8_a9 - 1262 m_a8_proc_0 - 1262 m_a9_proc_0 - u_a8
       - 403 y_a8_proc_0 >= -2524
 c411: K_a8_a9 + K_a9_a8 = 1
 c412: u_a8 + K_a9_a8 - 1262 m_a8_proc_0 - 1262 m_a9_proc_0 - u_a9
       - 872 y_a9_proc_0 >= -2524
 c413: K_a8_a9 + K_a9_a8 = 1

Bounds
       K_a0_a1 Free
       K_a0_a2 Free
       K_a0_a3 Free
       K_a0_a4 Free
       K_a0_a5 Free
       K_a0_a6 Free
       K_a0_a7 Free
       K_a0_a8 Free
       K_a0_a9 Free
       K_a1_a0 Free
       K_a1_a2 Free
       K_a1_a3 Free
       K_a1_a4 Free
       K_a1_a5 Free
       K_a1_a6 Free
       K_a1_a7 Free
       K_a1_a8 Free
       K_a1_a9 Free
       K_a2_a0 Free
       K_a2_a1 Free
       K_a2_a3 Free
       K_a2_a4 Free
       K_a2_a5 Free
       K_a2_a6 Free
       K_a2_a7 Free
       K_a2_a8 Free
       K_a2_a9 Free
       K_a3_a0 Free
       K_a3_a1 Free
       K_a3_a2 Free
       K_a3_a4 Free
       K_a3_a5 Free
       K_a3_a6 Free
       K_a3_a7 Free
       K_a3_a8 Free
       K_a3_a9 Free
       K_a4_a0 Free
       K_a4_a1 Free
       K_a4_a2 Free
       K_a4_a3 Free
       K_a4_a5 Free
       K_a4_a6 Free
       K_a4_a7 Free
       K_a4_a8 Free
       K_a4_a9 Free
       K_a5_a0 Free
       K_a5_a1 Free
       K_a5_a2 Free
       K_a5_a3 Free
       K_a5_a4 Free
       K_a5_a6 Free
       K_a5_a7 Free
       K_a5_a8 Free
       K_a5_a9 Free
       K_a6_a0 Free
       K_a6_a1 Free
       K_a6_a2 Free
       K_a6_a3 Free
       K_a6_a4 Free
       K_a6_a5 Free
       K_a6_a7 Free
       K_a6_a8 Free
       K_a6_a9 Free
       K_a7_a0 Free
       K_a7_a1 Free
       K_a7_a2 Free
       K_a7_a3 Free
       K_a7_a4 Free
       K_a7_a5 Free
       K_a7_a6 Free
       K_a7_a8 Free
       K_a7_a9 Free
       K_a8_a0 Free
       K_a8_a1 Free
       K_a8_a2 Free
       K_a8_a3 Free
       K_a8_a4 Free
       K_a8_a5 Free
       K_a8_a6 Free
       K_a8_a7 Free
       K_a8_a9 Free
       K_a9_a0 Free
       K_a9_a1 Free
       K_a9_a2 Free
       K_a9_a3 Free
       K_a9_a4 Free
       K_a9_a5 Free
       K_a9_a6 Free
       K_a9_a7 Free
       K_a9_a8 Free
 0 <= m_a0_proc_0 <= 1
 0 <= m_a0_proc_2 <= 1
 0 <= m_a0_proc_3 <= 1
 0 <= m_a1_proc_0 <= 1
 0 <= m_a1_proc_1 <= 1
 0 <= m_a1_proc_3 <= 1
 0 <= m_a2_proc_0 <= 1
 0 <= m_a2_proc_1 <= 1
 0 <= m_a2_proc_2 <= 1
 0 <= m_a2_proc_3 <= 1
 0 <= m_a3_proc_0 <= 1
 0 <= m_a3_proc_1 <= 1
 0 <= m_a3_proc_2 <= 1
 0 <= m_a3_proc_3 <= 1
 0 <= m_a4_proc_0 <= 1
 0 <= m_a4_proc_1 <= 1
 0 <= m_a4_proc_2 <= 1
 0 <= m_a5_proc_0 <= 1
 0 <= m_a5_proc_1 <= 1
 0 <= m_a5_proc_2 <= 1
 0 <= m_a5_proc_3 <= 1
 0 <= m_a6_proc_0 <= 1
 0 <= m_a6_proc_2 <= 1
 0 <= m_a6_proc_3 <= 1
 0 <= m_a7_proc_0 <= 1
 0 <= m_a7_proc_1 <= 1
 0 <= m_a8_proc_0 <= 1
 0 <= m_a8_proc_2 <= 1
 0 <= m_a9_proc_0 <= 1
 0 <= m_a9_proc_1 <= 1
 0 <= m_a9_proc_3 <= 1

Binaries
 m_a0_proc_0 m_a0_proc_2 m_a0_proc_3 m_a1_proc_0 m_a1_proc_1 m_a1_proc_3
 m_a2_proc_0 m_a2_proc_1 m_a2_proc_2 m_a2_proc_3 m_a3_proc_0 m_a3_proc_1
 m_a3_proc_2 m_a3_proc_3 m_a4_proc_0 m_a4_proc_1 m_a4_proc_2 m_a5_proc_0
 m_a5_proc_1 m_a5_proc_2 m_a5_proc_3 m_a6_proc_0 m_a6_proc_2 m_a6_proc_3
 m_a7_proc_0 m_a7_proc_1 m_a8_proc_0 m_a8_proc_2 m_a9_proc_0 m_a9_proc_1
 m_a9_proc_3

Generals
 K_a0_a1 K_a0_a2 K_a0_a3 K_a0_a4 K_a0_a5 K_a0_a6 K_a0_a7 K_a0_a8 K_a0_a9 K_a1_a0
 K_a1_a2 K_a1_a3 K_a1_a4 K_a1_a5 K_a1_a6 K_a1_a7 K_a1_a8 K_a1_a9 K_a2_a0 K_a2_a1
 K_a2_a3 K_a2_a4 K_a2_a5 K_a2_a6 K_a2_a7 K_a2_a8 K_a2_a9 K_a3_a0 K_a3_a1 K_a3_a2
 K_a3_a4 K_a3_a5 K_a3_a6 K_a3_a7 K_a3_a8 K_a3_a9 K_a4_a0 K_a4_a1 K_a4_a2 K_a4_a3
 K_a4_a5 K_a4_a6 K_a4_a7 K_a4_a8 K_a4_a9 K_a5_a0 K_a5_a1 K_a5_a2 K_a5_a3 K_a5_a4
 K_a5_a6 K_a5_a7 K_a5_a8 K_a5_a9 K_a6_a0 K_a6_a1 K_a6_a2 K_a6_a3 K_a6_a4 K_a6_a5
 K_a6_a7 K_a6_a8 K_a6_a9 K_a7_a0 K_a7_a1 K_a7_a2 K_a7_a3 K_a7_a4 K_a7_a5 K_a7_a6
 K_a7_a8 K_a7_a9 K_a8_a0 K_a8_a1 K_a8_a2 K_a8_a3 K_a8_a4 K_a8_a5 K_a8_a6 K_a8_a7
 K_a8_a9 K_a9_a0 K_a9_a1 K_a9_a2 K_a9_a3 K_a9_a4 K_a9_a5 K_a9_a6 K_a9_a7 K_a9_a8
End
